(declare-fun _for_it_23 () Int)
(declare-fun _for_it_49 () Int)
(declare-fun kfdia () Int)
(declare-fun kidia () Int)
(declare-fun klev () Int)
(declare-fun ncldtop () Int)

(assert (forall ((_if_cond_46_val (Array Int Int)) (_if_cond_47_val (Array Int Int)))
  (and
    (forall ((_for_it_50_0 Int) (_for_it_50_1 Int))
      (or
        (not (= (select _if_cond_46_val (- (+ _for_it_49 (* 4 _for_it_23) 4) (* ncldtop 4))) 1))
        (not (<= _for_it_50_1 (+ kfdia (- 1))))
        (not (= (select _if_cond_46_val (- (+ _for_it_49 (* 4 _for_it_23) 5) (* ncldtop 4))) 1))
        (not (<= (+ kidia (- 1)) _for_it_50_1))
        (not (<= _for_it_50_0 (+ kfdia (- 1))))
        (not (<= (+ kidia (- 1)) _for_it_50_0))
        (not (= _for_it_50_0 _for_it_50_1))
        (not (= (select _if_cond_47_val (- (+ (* _for_it_49 (- kfdia kidia)) _for_it_50_0 (* (- (+ _for_it_23 1) ncldtop) (- (* kfdia 4) (* kidia 4))) 1) kidia)) 1))
        (not (= (select _if_cond_47_val (- (+ (* (+ _for_it_49 1) (- kfdia kidia)) _for_it_50_1 (* (- (+ _for_it_23 1) ncldtop) (- (* kfdia 4) (* kidia 4))) 1) kidia)) 1))
      )
    )
    (forall ((_for_it_50_0 Int) (_for_it_50_1 Int))
      (or
        (not (= (select _if_cond_46_val (- (+ _for_it_49 (* 4 _for_it_23) 4) (* ncldtop 4))) 1))
        (not (<= _for_it_50_1 (+ kfdia (- 1))))
        (not (= (select _if_cond_46_val (- (+ _for_it_49 (* 4 _for_it_23) 5) (* ncldtop 4))) 1))
        (not (<= (+ kidia (- 1)) _for_it_50_1))
        (not (<= _for_it_50_0 (+ kfdia (- 1))))
        (not (<= (+ kidia (- 1)) _for_it_50_0))
        (not (= _for_it_50_0 _for_it_50_1))
        (not (= _for_it_49 (+ _for_it_49 1)))
        (not (= (select _if_cond_47_val (- (+ (* _for_it_49 (- kfdia kidia)) _for_it_50_0 (* (- (+ _for_it_23 1) ncldtop) (- (* kfdia 4) (* kidia 4))) 1) kidia)) 1))
        (not (= (select _if_cond_47_val (- (+ (* (+ _for_it_49 1) (- kfdia kidia)) _for_it_50_1 (* (- (+ _for_it_23 1) ncldtop) (- (* kfdia 4) (* kidia 4))) 1) kidia)) 1))
      )
    )
    (not (= (- (+ _for_it_49 (* 4 _for_it_23) 4) (* ncldtop 4)) (- (+ _for_it_49 (* 4 _for_it_23) 5) (* ncldtop 4))))
    (forall ((_for_it_50_0 Int) (_for_it_50_1 Int))
      (or
        (not (= (select _if_cond_46_val (- (+ _for_it_49 (* 4 _for_it_23) 4) (* ncldtop 4))) 1))
        (not (<= _for_it_50_1 (+ kfdia (- 1))))
        (not (= (select _if_cond_46_val (- (+ _for_it_49 (* 4 _for_it_23) 5) (* ncldtop 4))) 1))
        (not (<= (+ kidia (- 1)) _for_it_50_1))
        (not (<= _for_it_50_0 (+ kfdia (- 1))))
        (not (<= (+ kidia (- 1)) _for_it_50_0))
        (not (= _for_it_50_0 _for_it_50_1))
        (not (= _for_it_49 (+ _for_it_49 1)))
      )
    )
    (forall ((_for_it_50_0 Int) (_for_it_50_1 Int))
      (or
        (not (= (select _if_cond_46_val (- (+ _for_it_49 (* 4 _for_it_23) 4) (* ncldtop 4))) 1))
        (not (<= _for_it_50_1 (+ kfdia (- 1))))
        (not (= (select _if_cond_46_val (- (+ _for_it_49 (* 4 _for_it_23) 5) (* ncldtop 4))) 1))
        (not (<= (+ kidia (- 1)) _for_it_50_1))
        (not (<= _for_it_50_0 (+ kfdia (- 1))))
        (not (<= (+ kidia (- 1)) _for_it_50_0))
      )
    )
    (forall ((_for_it_50_0 Int) (_for_it_50_1 Int))
      (or
        (not (= (select _if_cond_46_val (- (+ _for_it_49 (* 4 _for_it_23) 4) (* ncldtop 4))) 1))
        (not (<= _for_it_50_1 (+ kfdia (- 1))))
        (not (= (select _if_cond_46_val (- (+ _for_it_49 (* 4 _for_it_23) 5) (* ncldtop 4))) 1))
        (not (<= (+ kidia (- 1)) _for_it_50_1))
        (not (<= _for_it_50_0 (+ kfdia (- 1))))
        (not (<= (+ kidia (- 1)) _for_it_50_0))
        (not (= (- (+ (* _for_it_49 (- kfdia kidia)) _for_it_50_0 (* (- (+ _for_it_23 1) ncldtop) (- (* kfdia 4) (* kidia 4))) 1) kidia) (- (+ (* (+ _for_it_49 1) (- kfdia kidia)) _for_it_50_1 (* (- (+ _for_it_23 1) ncldtop) (- (* kfdia 4) (* kidia 4))) 1) kidia)))
      )
    )
    (and
      (<= kidia (+ kfdia (- 1)))
      (<= 0 _for_it_49)
      (<= (+ _for_it_49 1) 4)
      (<= ncldtop (+ klev (- 1)))
    )
  )
))

(check-sat)